c 
c U(n,d) graph
c graph gen seed     : 6321
c number of vertices : 80
c max number of edges: 3160
c Euclidean distance : 0.200000
c data structure     : sparse
c
c           Graph Stats
c number of vertices  : 80
c nonisolated vertices: 80
c number of edges     : 351
c edge density        : 0.111076
c max degree          : 17
c avg degree          : 8.78
c min degree          : 1
p col 80 351
e 1 61
e 1 56
e 1 6
e 2 74
e 2 72
e 2 71
e 2 68
e 2 65
e 2 51
e 2 45
e 2 40
e 2 39
e 2 35
e 2 34
e 2 31
e 3 70
e 3 67
e 3 63
e 3 58
e 3 55
e 3 53
e 3 8
e 4 49
e 4 29
e 4 12
e 4 5
e 6 62
e 6 61
e 6 56
e 6 44
e 6 30
e 6 26
e 6 18
e 7 65
e 7 46
e 7 34
e 7 33
e 7 31
e 8 70
e 8 67
e 8 63
e 8 58
e 8 53
e 8 23
e 9 79
e 9 78
e 9 73
e 9 61
e 9 60
e 9 59
e 9 54
e 9 38
e 9 21
e 10 64
e 10 57
e 10 50
e 10 49
e 10 48
e 10 42
e 10 29
e 10 12
e 11 76
e 11 75
e 11 64
e 11 57
e 11 52
e 11 43
e 11 32
e 11 27
e 11 25
e 11 14
e 12 78
e 12 50
e 12 49
e 12 48
e 12 38
e 12 29
e 13 74
e 13 66
e 13 51
e 13 41
e 13 36
e 13 20
e 13 19
e 14 76
e 14 57
e 14 52
e 14 43
e 14 32
e 14 27
e 14 25
e 15 65
e 15 62
e 15 60
e 15 45
e 15 34
e 15 33
e 15 31
e 15 18
e 16 80
e 16 77
e 16 75
e 16 69
e 16 66
e 16 52
e 16 43
e 16 37
e 16 32
e 16 28
e 16 24
e 16 22
e 16 20
e 17 55
e 17 47
e 17 46
e 18 62
e 18 33
e 18 26
e 19 74
e 19 66
e 19 51
e 19 41
e 19 36
e 19 28
e 19 20
e 20 77
e 20 69
e 20 66
e 20 51
e 20 41
e 20 36
e 20 28
e 20 24
e 20 22
e 21 79
e 21 78
e 21 73
e 21 61
e 21 59
e 21 54
e 21 38
e 22 80
e 22 77
e 22 75
e 22 69
e 22 66
e 22 52
e 22 43
e 22 40
e 22 37
e 22 32
e 22 28
e 22 24
e 23 67
e 23 58
e 23 41
e 24 77
e 24 75
e 24 69
e 24 66
e 24 52
e 24 37
e 24 36
e 24 28
e 25 76
e 25 64
e 25 57
e 25 52
e 25 32
e 25 27
e 26 62
e 26 44
e 26 33
e 26 30
e 27 76
e 27 64
e 27 57
e 27 42
e 28 77
e 28 75
e 28 74
e 28 71
e 28 69
e 28 68
e 28 66
e 28 51
e 28 40
e 28 36
e 28 35
e 29 64
e 29 50
e 29 49
e 29 48
e 29 42
e 30 56
e 30 44
e 31 74
e 31 72
e 31 71
e 31 68
e 31 65
e 31 60
e 31 45
e 31 40
e 31 39
e 31 35
e 31 34
e 31 33
e 32 80
e 32 77
e 32 76
e 32 75
e 32 69
e 32 57
e 32 52
e 32 43
e 32 37
e 33 65
e 33 62
e 33 46
e 33 45
e 33 34
e 34 74
e 34 72
e 34 68
e 34 65
e 34 46
e 34 45
e 35 75
e 35 74
e 35 72
e 35 71
e 35 68
e 35 66
e 35 65
e 35 51
e 35 40
e 35 39
e 36 74
e 36 66
e 36 51
e 36 41
e 37 80
e 37 77
e 37 69
e 37 52
e 37 43
e 38 79
e 38 78
e 38 73
e 38 59
e 38 54
e 39 79
e 39 78
e 39 72
e 39 71
e 39 68
e 39 65
e 39 60
e 39 50
e 39 45
e 39 40
e 40 75
e 40 74
e 40 72
e 40 71
e 40 68
e 40 66
e 40 51
e 42 64
e 42 49
e 42 48
e 43 80
e 43 77
e 43 69
e 43 52
e 44 56
e 45 72
e 45 65
e 45 60
e 46 55
e 46 47
e 47 63
e 47 55
e 48 64
e 48 57
e 48 50
e 48 49
e 50 79
e 50 78
e 50 64
e 50 60
e 51 74
e 51 72
e 51 71
e 51 68
e 51 66
e 52 80
e 52 77
e 52 76
e 52 75
e 52 69
e 52 57
e 53 67
e 53 58
e 54 79
e 54 78
e 54 73
e 54 61
e 54 60
e 54 59
e 55 70
e 55 63
e 57 76
e 57 75
e 57 64
e 58 70
e 58 67
e 58 63
e 59 79
e 59 78
e 59 73
e 59 61
e 60 79
e 60 78
e 60 65
e 63 70
e 65 74
e 65 72
e 65 71
e 65 68
e 66 77
e 66 75
e 66 74
e 66 71
e 66 69
e 66 68
e 67 70
e 68 75
e 68 74
e 68 72
e 68 71
e 69 80
e 69 77
e 69 75
e 71 75
e 71 74
e 71 72
e 72 74
e 77 80
e 78 79
